p tw 65 110
5 6
5 14
2 12
4 25
4 6
4 28
4 13
10 28
42 56
24 28
37 55
37 60
25 63
25 64
14 29
20 30
46 54
61 65
61 64
61 63
61 62
1 26
1 22
6 14
6 13
6 18
60 64
21 29
21 26
33 60
38 56
38 61
38 54
38 63
9 22
13 29
13 18
13 19
41 50
41 49
41 60
45 62
64 65
17 30
17 25
32 45
32 38
34 52
22 26
22 29
44 46
44 52
27 30
12 30
54 56
49 57
49 54
7 21
7 16
39 53
39 42
3 4
3 18
3 12
3 5
3 65
3 15
35 55
35 45
35 51
35 42
48 51
48 56
63 65
63 64
18 24
18 23
18 62
50 65
50 53
50 52
16 28
16 26
16 27
31 59
31 57
31 58
31 40
11 26
43 59
43 45
43 57
43 52
40 59
55 58
23 26
8 21
36 42
36 44
36 58
36 57
36 46
51 53
19 29
19 21
47 55
15 61
62 65
62 64
62 63
